StudentsNr = 10;
InstructorsNr = 20;
DaysNr = 1;
SlotsPerDay = 10;
AvailabilitySlotsLenght = 1;
RoomNr = 2;
ProgrammNr = 1;
DegreeNr = 2;
RolesNr = 4;
CoursesNr = 5;
InstructorsProgramm = [{1}, {1}, {1}, {1}, {1}, {1}, {1}, {1}, {1}, {1}, {1}, {1}, {1}, {1}, {1}, {1}, {1}, {1}, {1}, {1}];
InstructorRolesPerProgramm = [|{1, 2, 3, 6, 8, 9, 14, 15}, {2, 4, 12, 15, 18, 20}, {1, 6, 12, 13, 17, 18, 20}, {1, 2, 3, 4, 6, 7, 10, 12, 13, 17, 18, 19}|];
InstructorsAvailability = [|1, 1, 1, 1, 1, 1, 1, 1, 1, 1, |1, 1, 1, 0, 1, 1, 1, 1, 1, 1, |0, 0, 1, 1, 1, 1, 1, 0, 0, 1, |0, 1, 1, 0, 1, 1, 0, 0, 1, 1, |1, 1, 1, 1, 1, 1, 1, 1, 0, 1, |1, 1, 1, 1, 1, 0, 0, 1, 0, 1, |0, 1, 1, 1, 1, 1, 1, 1, 0, 0, |0, 1, 1, 1, 1, 1, 0, 0, 0, 1, |0, 0, 0, 0, 1, 0, 0, 1, 1, 1, |0, 1, 1, 1, 1, 1, 1, 1, 1, 1, |0, 1, 1, 1, 1, 1, 1, 1, 1, 1, |1, 1, 1, 1, 1, 1, 1, 1, 1, 1, |0, 0, 1, 1, 1, 1, 1, 0, 1, 1, |1, 1, 1, 1, 0, 1, 1, 1, 1, 1, |0, 1, 1, 1, 0, 0, 1, 1, 1, 1, |1, 1, 1, 0, 0, 1, 1, 1, 1, 1, |0, 0, 1, 1, 1, 1, 0, 1, 1, 1, |0, 1, 1, 1, 1, 1, 1, 1, 1, 1, |0, 1, 1, 1, 1, 0, 0, 0, 1, 0, |0, 1, 1, 0, 0, 1, 0, 0, 1, 1|];
StudentsProgramm = [1, 1, 1, 1, 1, 1, 1, 1, 1, 1];
StudentsDegree = [2, 2, 2, 1, 2, 1, 2, 2, 1, 1];
StudentsSupervisorId = [8, 7, 1, 19, 13, 16, 19, 9, 19, 3];
StudentsCourseIds = [{3}, {3}, {5}, {2}, {1}, {3}, {2}, {2}, {2}, {2}];
StudentsAvailability = [|1, 1, 1, 1, 1, 1, 1, 1, 1, 1, |0, 1, 1, 1, 1, 1, 1, 1, 1, 1, |0, 0, 1, 1, 1, 1, 0, 0, 0, 1, |1, 0, 1, 1, 1, 1, 1, 1, 1, 1, |1, 1, 0, 1, 1, 1, 1, 1, 0, 0, |1, 1, 1, 1, 1, 1, 1, 1, 0, 0, |1, 1, 1, 1, 1, 1, 1, 1, 0, 0, |0, 0, 1, 1, 1, 1, 1, 1, 1, 1, |1, 1, 1, 1, 1, 1, 1, 1, 1, 1, |0, 0, 1, 1, 1, 1, 1, 1, 1, 1|];
TheoryticalMinCard = [0, 0, 0, 0, 0, 0, 0, 0, 0, 0];
CoursesInstructorIds = [{9, 10, 12}, {2, 16}, {3, 6, 8, 9, 11, 13, 16, 17, 19, 20}, {1, 2, 6, 11, 16}, {2, 3, 8, 9, 10, 13, 15, 16, 17, 19}];
RolesDemands = [5, 2, 4, 3];
RolesContinuity = [];
ExamLen = [2, 2, 2, 2, 2, 2, 2, 2, 2, 2];
LunchTsMinLen = 0;
LunchStarts = [3..7];
SupervisorAvailable = 5;
OptimalLunchLenght = [0, 2];
OptimalStartTs = [2, 1];
OptimalFinishTs = [2, 9];
MinimizeRooms = 500;
RolesSoftContinuity = [|1, 2, 3, 4|1, 3, 4, 4|];
SameDegreeInRoom = 10;
Mergeability = 1;
